%NProc=4
%Mem=2GB
%chk=2.chk
#p opt freq m062x/6-31+g(d) scrf=(smd,solvent=chloroform)

2.g09

0 1
C                -3.876416337          1.673328316         -0.534029650
C                -4.937836372          0.822077414         -0.839780221
N                -4.781330007         -0.524435899         -0.834951953
C                -3.575871224         -1.061759017         -0.525416440
C                -2.484092859         -0.252860978         -0.211768174
C                -2.626472669          1.134763876         -0.228160055
H                -4.015561259          2.749800175         -0.531998053
C                -6.325585900          1.373937267         -1.186206080
C                -3.459983367         -2.590482053         -0.522420502
H                -1.526286324         -0.693924367          0.045417511
C                -1.478306948          2.025278183          0.138792568
H                -0.525252620          1.576553217         -0.160541031
H                -1.466170632          2.194285178          1.219904847
H                -1.554962828          2.992252631         -0.369483166
C                -6.239203829          2.283387057         -2.427124066
C                -6.885901232          2.174200065          0.005219642
C                -7.324198849          0.237999452         -1.503651179
C                -3.101070875         -3.086057361          0.891506198
C                -2.377442471         -3.043657963         -1.521173956
C                -4.790057141         -3.260533393         -0.935110399
H                -5.612214797          3.164104849         -2.249294253
H                -7.231039277          2.647340339         -2.719450293
H                -5.815093027          1.745431086         -3.283255316
H                -6.990272878         -0.363429348         -2.357618330
H                -8.313751024          0.639035194         -1.752262741
H                -7.450177000         -0.437300024         -0.648904464
H                -6.269447151          3.049333479          0.238985200
H                -6.934788661          1.555937025          0.909436044
H                -7.898066434          2.538697076         -0.205208599
H                -5.602994857         -2.998718959         -0.247322260
H                -4.699851009         -4.353113849         -0.933728079
H                -5.095989980         -2.957980976         -1.943753460
H                -2.126138211         -2.711602659          1.222947096
H                -3.056279791         -4.180749887          0.926576751
H                -3.845779676         -2.758544785          1.626652453
H                -1.382805085         -2.675899084         -1.245926861
H                -2.594552666         -2.679328042         -2.532274669
H                -2.315387101         -4.137187530         -1.566398489


