%NProc=4
%Mem=2GB
%chk=3.chk
#p opt freq m062x/6-31+g(d) scrf=(smd,solvent=chloroform)

3.g09

0 1
 C                 -5.92467417   -5.67287849    0.81902151
 C                 -5.45257243   -6.11286652   -0.41525320
 C                 -5.39718388   -4.51517376    1.39485275
 C                 -4.39371912   -3.78448215    0.73835624
 C                 -3.92630937   -4.23545396   -0.50367461
 C                 -4.45476875   -5.39716647   -1.07499530
 N                 -1.16963027    0.77958287    0.34424467
 C                 -1.33443346    1.55577565   -0.75512725
 C                 -0.64241769    2.75643179   -0.90052523
 C                  0.25280555    3.15866443    0.09077260
 C                  0.40222033    2.35660979    1.22379417
 C                 -0.32878923    1.17538467    1.33325003
 H                 -6.70382672   -6.22907229    1.33459159
 H                 -5.86587922   -7.01158264   -0.86681999
 H                 -3.15788557   -3.69952798   -1.05388166
 H                 -4.09391890   -5.73743699   -2.04303040
 H                 -5.77632345   -4.18567413    2.36096193
 C                 -2.31685469    1.06897622   -1.82630465
 H                 -0.79132616    3.37698786   -1.77798966
 C                 -0.17997781    0.22599921    2.52710801
 C                  0.99340926    4.45605578   -0.02986599
 H                  1.09350720    2.66199955    2.00116290
 C                 -3.85272866   -2.54778446    1.39243829
 O                 -4.31517453   -2.24228546    2.49156299
 Cl                -2.60052305   -1.61364330    0.59922374
 H                  1.17684439    4.70583324   -1.08034388
 H                  1.96898134    4.39606102    0.46375784
 H                  0.41308136    5.26261854    0.42870133
 C                  0.79302841    0.75485937    3.60076432
 C                  0.33214136   -1.12853734    2.00612393
 C                 -1.54587523    0.00759359    3.21731846
 C                 -2.33728025    2.01889542   -3.04331287
 C                 -3.74671540    1.01274069   -1.25503807
 C                 -1.89915562   -0.32816012   -2.32280208
 H                 -4.05646455    1.99077393   -0.86785732
 H                 -3.83541185    0.29174302   -0.43503464
 H                 -4.46766157    0.71543548   -2.02549241
 H                 -2.65658132    3.02893547   -2.76034246
 H                 -3.02677142    1.66017666   -3.81623206
 H                 -1.34485351    2.10105180   -3.49870978
 H                 -0.87322081   -0.32106317   -2.70933692
 H                 -2.55730592   -0.67463179   -3.12804682
 H                 -1.94343015   -1.07684248   -1.52386344
 H                 -1.97268427    0.95830901    3.55645798
 H                 -1.44838281   -0.64594691    4.09206241
 H                 -2.27436177   -0.46262269    2.54631168
 H                  1.31145810   -1.02687165    1.52359707
 H                 -0.35338965   -1.55873321    1.26629798
 H                  0.43752421   -1.85258890    2.82212569
 H                  1.82521562    0.79882956    3.23676114
 H                  0.80034228    0.10237958    4.48196581
 H                  0.50961403    1.76017050    3.93356076


