%NProc=16
%Mem=24GB
%chk=3c.chk
#p opt freq m062x/6-31+g(d) scrf=(smd,solvent=chloroform)
 
3c
 
0 1
 C                  5.15404900    0.11399400   -0.34570000
 C                  5.31873100   -0.56213200    0.86535500
 C                  3.99357300    0.84103800   -0.58028200
 C                  2.98835600    0.89048700    0.39743300
 C                  3.15587200    0.21749200    1.61171900
 C                  4.32223200   -0.50866800    1.83921500
 N                 -1.85044300   -0.96794200    0.04188200
 C                 -2.67961200    0.07495100    0.00255200
 C                 -2.51959700    1.10524200   -0.93686300
 C                 -1.46162900    1.05714300   -1.83589000
 C                 -0.58654200   -0.03325200   -1.75724200
 C                 -0.81265900   -1.03147600   -0.81280000
 H                  5.92877700    0.07376300   -1.10564100
 H                  6.22506500   -1.13182000    1.05097600
 H                  2.39064300    0.25045000    2.37973200
 H                  4.45304400   -1.03150900    2.78173800
 H                  3.85121000    1.36988000   -1.51759700
 C                 -3.83593300    0.10945900    1.00570300
 H                 -3.21006500    1.94454200   -0.96741800
 C                  0.04543800   -2.29314900   -0.71383300
 C                 -1.23646100    2.15154800   -2.84450500
 H                  0.25474700   -0.08373900   -2.44335900
 C                  1.78522600    1.68758200    0.05842100
 O                  1.63999300    2.34076000   -0.93042100
 Cl                 0.46117500    1.65297100    1.27446800
 H                 -2.12437800    2.77997400   -2.95426400
 H                 -0.98115700    1.73550700   -3.82458300
 H                 -0.40219900    2.78853800   -2.52869800
 C                 -0.78161000   -3.46803400   -1.26474400
 C                  0.38860000   -2.58406200    0.75510300
 C                  1.34050200   -2.17819000   -1.52104000
 C                 -5.16710400    0.03882700    0.23994300
 C                 -3.78404300    1.41689600    1.81166800
 C                 -3.76050800   -1.07224400    1.97671000
 H                 -3.87728900    2.29958900    1.16953400
 H                 -2.84239100    1.49952500    2.36680800
 H                 -4.60808500    1.44349200    2.53470600
 H                 -5.29453300    0.89623400   -0.42999500
 H                 -6.00728400    0.03627000    0.94561300
 H                 -5.22428500   -0.87767500   -0.35855500
 H                 -3.83883500   -2.02814200    1.44976700
 H                 -4.58681500   -1.00556000    2.69464500
 H                 -2.81956500   -1.06676500    2.53701700
 H                  1.14428000   -2.10615400   -2.59665000
 H                  1.95591500   -3.07049100   -1.35620200
 H                  1.93435200   -1.30586000   -1.22018100
 H                 -0.52211200   -2.74873900    1.33766300
 H                  0.94983500   -1.76901700    1.22929100
 H                  1.00551200   -3.48869400    0.81038300
 H                 -1.70970900   -3.58929300   -0.69581300
 H                 -0.20932400   -4.40127600   -1.19349000
 H                 -1.04347600   -3.30473400   -2.31674500

