%NProc=4
%Mem=2GB
%chk=1.chk
#p opt freq m062x/6-31+g(d) scrf=(smd,solvent=chloroform)

1.g09

0 1
C                -2.388335952          0.765755386         -0.080146214
C                -3.552833848         -0.007082893         -0.040632851
C                -3.470535909         -1.396530920          0.033211039
C                -2.225137747         -2.019589586          0.067889651
C                -1.129836677          0.148695397         -0.045775612
C                -1.059444422         -1.251590362          0.028639564
H                -2.493963814          1.845627217         -0.137578135
H                -4.526801759          0.476667159         -0.067558651
H                -4.378392912         -1.994589702          0.063776778
H                -2.159372217         -3.103573653          0.125503050
H                -0.094201528         -1.755049910          0.056608398
C                 0.145791983          0.937260881         -0.085986955
O                 1.201593782          0.306229846         -0.050798425
Cl                0.089296201          2.686019077         -0.179370482


