%NProc=8
%Mem=4GB
%chk=3.chk
#p opt freq m062x/6-31+g(d) scrf=(smd,solvent=chloroform)

Initial structure is that optimized at constrained bond length of 2.8

0 1
 C                  5.83346000   -0.66725200   -0.48911200
 C                  5.83765200    0.43794300    0.36446200
 C                  4.63318300   -1.28576800   -0.81744700
 C                  3.42874500   -0.79535300   -0.29319900
 C                  3.43395900    0.30913800    0.56487900
 C                  4.64044200    0.92338000    0.88983000
 N                 -1.76724900    0.35744900    0.67151500
 C                 -1.54781700    1.46180700   -0.05455100
 C                 -2.07680500    1.61024700   -1.33883200
 C                 -2.86299800    0.59568200   -1.88565300
 C                 -3.10289000   -0.53016100   -1.09928000
 C                 -2.54621800   -0.61429600    0.18021700
 H                  6.76579800   -1.04658500   -0.89638500
 H                  6.77633600    0.92206300    0.61940500
 H                  2.50658700    0.69148700    0.97848000
 H                  4.64334800    1.78199400    1.55452700
 H                  4.61599200   -2.14652000   -1.47882400
 C                 -0.70174000    2.57588400    0.56844700
 H                 -1.88411600    2.51290500   -1.91411100
 C                 -2.83107300   -1.82552100    1.07256900
 C                 -3.41427400    0.70573600   -3.28193500
 H                 -3.72730600   -1.33348200   -1.48298700
 C                  2.19080300   -1.50992100   -0.69733800
 O                  2.14882000   -2.47637000   -1.39968400
 Cl                 0.65395600   -0.83556000   -0.07313200
 H                 -3.62082100    1.74739700   -3.54497200
 H                 -4.33712300    0.12846800   -3.39125000
 H                 -2.69036100    0.31659800   -4.00765200
 C                 -4.33871500   -1.86420700    1.37722600
 C                 -2.06358000   -1.73891900    2.39404300
 C                 -2.43014500   -3.11984000    0.34682600
 C                 -1.58078100    3.82771700    0.73418800
 C                  0.48229800    2.91195400   -0.35350100
 C                 -0.16614900    2.16738000    1.94315100
 H                  0.14628100    3.29220800   -1.32419800
 H                  1.10546000    2.02896500   -0.53545100
 H                  1.10911300    3.68461500    0.10828700
 H                 -1.95415500    4.18996400   -0.23008000
 H                 -1.00197400    4.63650900    1.19685100
 H                 -2.44477200    3.61667900    1.37533400
 H                 -0.98000700    1.97045000    2.64807600
 H                  0.45323800    2.97720300    2.34720300
 H                  0.44073100    1.25799700    1.88549900
 H                 -2.99290400   -3.25730600   -0.58282300
 H                 -2.63194800   -3.98488800    0.99006600
 H                 -1.36261100   -3.11976400    0.10000900
 H                 -2.34595800   -0.85027600    2.96745800
 H                 -0.98194700   -1.69827900    2.22918800
 H                 -2.28708600   -2.62538700    2.99958900
 H                 -4.65943500   -0.94664900    1.88456300
 H                 -4.56891600   -2.71381500    2.03155000
 H                 -4.93265200   -1.97301100    0.46281500



